NAME : instances/clustered-mixed-tsp/instance-23.tsp
COMMENT : No Comment
TYPE : TSP
DIMENSION: 52
EDGE_WEIGHT_TYPE : EUC_2D
NODE_COORD_SECTION
1 744 526 
2 430 1450 
3 622 464 
4 450 105 
5 1333 -37 
6 -24 266 
7 420 1328 
8 562 1437 
9 745 523 
10 1441 544 
11 465 1360 
12 455 150 
13 -29 386 
14 696 498 
15 463 180 
16 230 1152 
17 290 1281 
18 1563 676 
19 474 209 
20 1827 61 
21 554 65 
22 89 245 
23 1536 552 
24 470 160 
25 731 502 
26 274 1238 
27 1361 105 
28 282 1140 
29 -15 265 
30 427 1096 
31 540 233 
32 335 1183 
33 416 1138 
34 1601 655 
35 1405 43 
36 495 68 
37 505 130 
38 1318 -79 
39 758 491 
40 426 1463 
41 471 1363 
42 442 216 
43 587 484 
44 703 516 
45 745 579 
46 1420 57 
47 475 1331 
48 1590 644 
49 413 173 
50 458 1271 
51 1842 52 
52 1371 54 
EOF
